p cnf 292 208
c p distribution  0.875 0.125
c p distribution  0.875 0.125
c p distribution  0.875 0.125
c p distribution  0.875 0.125
c p distribution  0.875 0.125
c p distribution  0.875 0.125
c p distribution  0.875 0.125
c p distribution  0.875 0.125
c p distribution  0.875 0.125
c p distribution  0.875 0.125
c p distribution  0.875 0.125
c p distribution  0.875 0.125
c p distribution  0.875 0.125
c p distribution  0.875 0.125
c p distribution  0.875 0.125
c p distribution  0.875 0.125
c p distribution  0.875 0.125
c p distribution  0.875 0.125
c p distribution  0.875 0.125
c p distribution  0.875 0.125
c p distribution  0.875 0.125
c p distribution  0.875 0.125
c p distribution  0.875 0.125
c p distribution  0.875 0.125
c p distribution  0.875 0.125
c p distribution  0.875 0.125
c p distribution  0.875 0.125
c p distribution  0.875 0.125
c p distribution  0.875 0.125
c p distribution  0.875 0.125
c p distribution  0.875 0.125
c p distribution  0.875 0.125
c p distribution  0.875 0.125
c p distribution  0.875 0.125
c p distribution  0.875 0.125
c p distribution  0.875 0.125
c p distribution  0.875 0.125
c p distribution  0.875 0.125
c p distribution  0.875 0.125
c p distribution  0.875 0.125
c p distribution  0.875 0.125
c p distribution  0.875 0.125
c p distribution  0.875 0.125
c p distribution  0.875 0.125
c p distribution  0.875 0.125
c p distribution  0.875 0.125
c p distribution  0.875 0.125
c p distribution  0.875 0.125
c p distribution  0.875 0.125
c p distribution  0.875 0.125
c p distribution  0.875 0.125
c p distribution  0.875 0.125
c p distribution  0.875 0.125
c p distribution  0.875 0.125
c p distribution  0.875 0.125
c p distribution  0.875 0.125
c p distribution  0.875 0.125
c p distribution  0.875 0.125
c p distribution  0.875 0.125
c p distribution  0.875 0.125
c p distribution  0.875 0.125
c p distribution  0.875 0.125
c p distribution  0.875 0.125
c p distribution  0.875 0.125
c p distribution  0.875 0.125
c p distribution  0.875 0.125
c p distribution  0.875 0.125
c p distribution  0.875 0.125
c p distribution  0.875 0.125
c p distribution  0.875 0.125
c p distribution  0.875 0.125
c p distribution  0.875 0.125
c p distribution  0.875 0.125
c p distribution  0.875 0.125
c p distribution  0.875 0.125
c p distribution  0.875 0.125
c p distribution  0.875 0.125
c p distribution  0.875 0.125
c p distribution  0.875 0.125
c p distribution  0.875 0.125
c p distribution  0.875 0.125
c p distribution  0.875 0.125
c p distribution  0.875 0.125
c p distribution  0.875 0.125
c p distribution  0.875 0.125
c p distribution  0.875 0.125
c p distribution  0.875 0.125
c p distribution  0.875 0.125
c p distribution  0.875 0.125
c p distribution  0.875 0.125
c p distribution  0.875 0.125
c p distribution  0.875 0.125
c p distribution  0.875 0.125
c p distribution  0.875 0.125
c p distribution  0.875 0.125
c p distribution  0.875 0.125
c p distribution  0.875 0.125
c p distribution  0.875 0.125
c p distribution  0.875 0.125
c p distribution  0.875 0.125
c p distribution  0.875 0.125
c p distribution  0.875 0.125
c p distribution  0.875 0.125
257 0
-207 0
260 -264 -1 0
264 -260 -1 0
239 -279 -3 0
279 -239 -3 0
280 -278 -5 0
278 -280 -5 0
239 -281 -7 0
281 -239 -7 0
274 -216 -9 0
216 -274 -9 0
240 -212 -11 0
212 -240 -11 0
278 -280 -13 0
280 -278 -13 0
282 -254 -15 0
254 -282 -15 0
215 -282 -17 0
282 -215 -17 0
212 -208 -19 0
208 -212 -19 0
216 -258 -21 0
258 -216 -21 0
242 -250 -23 0
250 -242 -23 0
223 -244 -25 0
244 -223 -25 0
223 -244 -27 0
244 -223 -27 0
275 -238 -29 0
238 -275 -29 0
284 -286 -31 0
286 -284 -31 0
290 -272 -33 0
272 -290 -33 0
241 -268 -35 0
268 -241 -35 0
242 -250 -37 0
250 -242 -37 0
241 -290 -39 0
290 -241 -39 0
276 -220 -41 0
220 -276 -41 0
247 -240 -43 0
240 -247 -43 0
250 -248 -45 0
248 -250 -45 0
265 -269 -47 0
269 -265 -47 0
236 -263 -49 0
263 -236 -49 0
267 -288 -51 0
288 -267 -51 0
248 -253 -53 0
253 -248 -53 0
241 -257 -55 0
257 -241 -55 0
215 -243 -57 0
243 -215 -57 0
252 -229 -59 0
229 -252 -59 0
243 -287 -61 0
287 -243 -61 0
235 -289 -63 0
289 -235 -63 0
283 -272 -65 0
272 -283 -65 0
246 -239 -67 0
239 -246 -67 0
213 -208 -69 0
208 -213 -69 0
213 -222 -71 0
222 -213 -71 0
278 -243 -73 0
243 -278 -73 0
221 -222 -75 0
222 -221 -75 0
219 -208 -77 0
208 -219 -77 0
260 -286 -79 0
286 -260 -79 0
223 -236 -81 0
236 -223 -81 0
260 -264 -83 0
264 -260 -83 0
249 -237 -85 0
237 -249 -85 0
264 -274 -87 0
274 -264 -87 0
274 -216 -89 0
216 -274 -89 0
262 -251 -91 0
251 -262 -91 0
268 -252 -93 0
252 -268 -93 0
219 -247 -95 0
247 -219 -95 0
232 -280 -97 0
280 -232 -97 0
241 -290 -99 0
290 -241 -99 0
284 -271 -101 0
271 -284 -101 0
234 -267 -103 0
267 -234 -103 0
291 -211 -105 0
211 -291 -105 0
288 -246 -107 0
246 -288 -107 0
273 -263 -109 0
263 -273 -109 0
253 -273 -111 0
273 -253 -111 0
249 -233 -113 0
233 -249 -113 0
244 -226 -115 0
226 -244 -115 0
275 -288 -117 0
288 -275 -117 0
279 -238 -119 0
238 -279 -119 0
242 -272 -121 0
272 -242 -121 0
230 -235 -123 0
235 -230 -123 0
229 -214 -125 0
214 -229 -125 0
234 -267 -127 0
267 -234 -127 0
280 -232 -129 0
232 -280 -129 0
271 -261 -131 0
261 -271 -131 0
230 -214 -133 0
214 -230 -133 0
250 -248 -135 0
248 -250 -135 0
277 -210 -137 0
210 -277 -137 0
236 -218 -139 0
218 -236 -139 0
276 -257 -141 0
257 -276 -141 0
217 -224 -143 0
224 -217 -143 0
259 -270 -145 0
270 -259 -145 0
224 -245 -147 0
245 -224 -147 0
247 -240 -149 0
240 -247 -149 0
275 -209 -151 0
209 -275 -151 0
283 -290 -153 0
290 -283 -153 0
228 -211 -155 0
211 -228 -155 0
289 -237 -157 0
237 -289 -157 0
265 -262 -159 0
262 -265 -159 0
212 -255 -161 0
255 -212 -161 0
231 -256 -163 0
256 -231 -163 0
284 -232 -165 0
232 -284 -165 0
277 -292 -167 0
292 -277 -167 0
292 -234 -169 0
234 -292 -169 0
275 -281 -171 0
281 -275 -171 0
225 -245 -173 0
245 -225 -173 0
208 -261 -175 0
261 -208 -175 0
256 -292 -177 0
292 -256 -177 0
220 -269 -179 0
269 -220 -179 0
225 -218 -181 0
218 -225 -181 0
218 -263 -183 0
263 -218 -183 0
225 -227 -185 0
227 -225 -185 0
238 -281 -187 0
281 -238 -187 0
251 -288 -189 0
288 -251 -189 0
221 -231 -191 0
231 -221 -191 0
291 -233 -193 0
233 -291 -193 0
241 -207 -195 0
207 -241 -195 0
258 -211 -197 0
211 -258 -197 0
285 -227 -199 0
227 -285 -199 0
270 -208 -201 0
208 -270 -201 0
208 -261 -203 0
261 -208 -203 0
248 -266 -205 0
266 -248 -205 0

